70	100	100	100
1	1	8
5	9	9
5	7	5
9	1	6
3	8	7
2	6	4
1	8	1
7	1	6
8	2	5
9	5	2
6	7	8
4	8	9
6	3	6
6	6	1
2	5	3
3	3	8
1	4	3
6	8	9
5	5	8
9	9	4
8	1	7
3	6	7
7	5	2
5	4	4
2	1	1
4	1	9
3	4	4
8	4	8
8	9	8
3	1	3
8	4	9
8	9	9
1	8	7
4	5	2
9	8	6
2	3	7
4	5	5
4	6	7
6	6	1
6	9	1
1	3	4
4	1	2
6	2	1
4	5	3
6	8	8
3	6	6
6	1	6
4	6	7
1	5	4
9	3	9
5	3	2
3	9	3
1	1	5
7	8	5
2	8	6
6	2	8
5	2	5
7	2	9
6	7	4
6	6	5
7	1	7
9	3	9
7	9	6
3	1	1
9	9	9
5	6	7
2	7	9
9	6	3
5	5	2
8	1	4
